;; ===================== PROJECTED CANON (QE) =====================
;; Each clause below is entailed by Proj = ∃W.F over the canonical vocabulary.
;; Units appear first for clarity; OR-clauses (SAT-filtered) follow.
;; ==================================================================

;; Unit Bool constraints (entailed)
(assert (not patient_has_finding_of_hypertension_secondary_to_endocrine_disorder_now))
(assert (not patient_has_diagnosis_of_preinfarction_syndrome_now))
(assert (not patient_has_finding_of_disorder_due_to_infection_now))
(assert (not patient_has_finding_of_rheumatoid_arthritis_now))
(assert (not patient_has_undergone_antihypertensive_therapy_inthehistory))
(assert (not patient_has_undergone_antihypertensive_therapy_inthepast8weeks))
